20
0 1 0.4 0.4
0 2 0.42 0.2
0 3 0.32 0.32
0 4 0.54 0.21
0 5 0.24 0.24
0 6 0.46 0.26
0 7 0.16 0.16
0 8 0.29 0.29
0 9 0.78 0.32
0 10 0.62 0.28
0 11 0.23 0.23
0 12 0.28 0.28
0 13 0.5 0.29
0 14 0.33 0.33
0 15 0.6 0.29
0 16 0.38 0.23
0 17 0.36 0.36
0 18 0.42 0.32
0 19 0.39 0.39
1 2 0.6 0.37
1 3 0.3 0.3
1 4 0.2 0.2
1 5 0.3 0.3
1 6 0.46 0.34
1 7 0.62 0.28
1 8 0.12 0.12
1 9 0.6 0.29
1 10 0.62 0.12
1 11 0.73 0.18
1 12 0.7 0.16
1 13 0.28 0.18
1 14 0.28 0.28
1 15 0.5 0.2
1 16 0.34 0.34
1 17 0.43 0.3
1 18 0.25 0.25
1 19 0.55 0.22
2 3 0.32 0.32
2 4 0.64 0.32
2 5 0.27 0.27
2 6 0.26 0.26
2 7 0.16 0.16
2 8 0.25 0.25
2 9 0.62 0.43
2 10 0.34 0.34
2 11 0.47 0.3
2 12 0.28 0.28
2 13 0.32 0.19
2 14 0.62 0.3
2 15 0.75 0.23
2 16 0.27 0.27
2 17 0.16 0.16
2 18 0.18 0.18
2 19 0.69 0.35
3 4 0.27 0.17
3 5 0.6 0.31
3 6 0.54 0.26
3 7 0.42 0.16
3 8 0.25 0.25
3 9 0.21 0.21
3 10 0.38 0.38
3 11 0.19 0.19
3 12 0.25 0.25
3 13 0.29 0.29
3 14 0.56 0.29
3 15 0.24 0.24
3 16 0.82 0.38
3 17 0.68 0.35
3 18 0.35 0.29
3 19 0.35 0.35
4 5 0.46 0.14
4 6 0.34 0.14
4 7 0.23 0.23
4 8 0.08 0.08
4 9 0.36 0.36
4 10 0.56 0.32
4 11 0.49 0.02
4 12 0.12 0.12
4 13 0.14 0.14
4 14 0.83 0.12
4 15 0.59 0.1
4 16 0.59 0.23
4 17 0.48 0.18
4 18 0.14 0.14
4 19 0.18 0.18
5 6 0.16 0.16
5 7 0.59 0.26
5 8 0.18 0.18
5 9 0.38 0.38
5 10 0.41 0.41
5 11 0.52 0.12
5 12 0.22 0.22
5 13 0.24 0.24
5 14 0.54 0.22
5 15 0.76 0.24
5 16 0.33 0.33
5 17 0.5 0.28
5 18 0.24 0.24
5 19 0.28 0.28
6 7 0.1 0.1
6 8 0.44 0.22
6 9 0.22 0.22
6 10 0.34 0.34
6 11 0.16 0.16
6 12 0.66 0.22
6 13 0.23 0.23
6 14 0.26 0.26
6 15 0.23 0.23
6 16 0.68 0.27
6 17 0.14 0.13
6 18 0.7 0.18
6 19 0.54 0.32
7 8 0.16 0.16
7 9 0.32 0.32
7 10 0.24 0.24
7 11 0.22 0.22
7 12 0.12 0.12
7 13 0.13 0.13
7 14 0.79 0.3
7 15 0.61 0.13
7 16 0.27 0.27
7 17 0.23 0.23
7 18 0.3 0.18
7 19 0.82 0.26
8 9 0.28 0.28
8 10 0.6 0.24
8 11 0.76 0.06
8 12 0.04 0.04
8 13 0.48 0.06
8 14 0.7 0.16
8 15 0.18 0.18
8 16 0.26 0.26
8 17 0.18 0.18
8 18 0.54 0.18
8 19 0.1 0.1
9 10 0.75 0.17
9 11 0.73 0.34
9 12 0.8 0.32
9 13 0.62 0.24
9 14 0.71 0.44
9 15 0.36 0.36
9 16 0.4 0.4
9 17 0.35 0.35
9 18 0.38 0.31
9 19 0.3 0.3
10 11 0.3 0.3
10 12 0.28 0.28
10 13 0.51 0.3
10 14 0.4 0.4
10 15 0.66 0.32
10 16 0.46 0.46
10 17 0.36 0.24
10 18 0.82 0.37
10 19 0.76 0.34
11 12 0.6 0.1
11 13 0.67 0.12
11 14 0.1 0.1
11 15 0.7 0.12
11 16 0.48 0.21
11 17 0.52 0.2
11 18 0.8 0.12
11 19 0.66 0.16
12 13 0.1 0.1
12 14 0.18 0.18
12 15 0.22 0.22
12 16 0.44 0.3
12 17 0.22 0.22
12 18 0.22 0.22
12 19 0.64 0.14
13 14 0.22 0.22
13 15 0.53 0.24
13 16 0.56 0.2
13 17 0.15 0.12
13 18 0.24 0.24
13 19 0.16 0.16
14 15 0.78 0.22
14 16 0.5 0.27
14 17 0.38 0.3
14 18 0.18 0.18
14 19 0.26 0.26
15 16 0.52 0.14
15 17 0.4 0.27
15 18 0.7 0.05
15 19 0.2 0.2
16 17 0.54 0.32
16 18 0.09 0.09
16 19 0.33 0.33
17 18 0.31 0.31
17 19 0.4 0.28
18 19 0.65 0.24
